==> MAXTIME              = 3600
==> OUTPUTLOG            = 1
==> SBESTIMATE           = 5
FICO Xpress v8.5.9, solve started 23:50:51, Jun 8, 2019
Maximizing MILP Seating model
Original problem has:
       230 rows          300 cols         7440 elements       300 globals
Presolved problem has:
       103 rows          204 cols         2431 elements       198 globals
LP relaxation tightened
Will try to keep branch and bound tree memory usage below 7.2GB
 *** Heuristic solution found:    22.000000      Time: 0 ***
Starting concurrent solve with dual

 Concurrent-Solve,   0s
            Dual        
    objective   dual inf
 D  102.00000   .0000000
------- optimal --------
Concurrent statistics:
      Dual: 34 simplex iterations, 0.00s
Optimal solution found
 
   Its         Obj Value      S   Ninf  Nneg   Sum Dual Inf  Time
    34        102.000000      D      0     0        .000000     0
Dual solved problem
  34 simplex iterations in 0s

Final objective                         : 1.020000000000000e+02
  Max primal violation      (abs / rel) : 1.110e-16 / 9.869e-17
  Max dual violation        (abs / rel) :       0.0 /       0.0
  Max complementarity viol. (abs / rel) :       0.0 /       0.0
All values within tolerances

Starting root cutting & heuristics
 
 Its Type    BestSoln    BestBound   Sols    Add    Del     Gap     GInf   Time
   1  K     22.000000   102.000000      1     99      0   78.43%      29      0
   2  K     22.000000   102.000000      1    111     81   78.43%      43      0
   3  K     22.000000   102.000000      1     92    101   78.43%      48      0
b           28.000000   102.000000      2                 72.55%       0      0
   4  K     28.000000   102.000000      2     87     94   72.55%      35      0
   5  K     28.000000   102.000000      2    100     83   72.55%      49      0
   6  K     28.000000   102.000000      2     93     97   72.55%      47      0
   7  K     28.000000   102.000000      2     89     88   72.55%      58      0
b           35.000000   102.000000      3                 65.69%       0      0
   8  K     35.000000   102.000000      3     81     91   65.69%      37      0
   9  K     35.000000   102.000000      3     95     87   65.69%      48      0
  10  K     35.000000   102.000000      3     97     89   65.69%      58      0
  11  K     35.000000   102.000000      3     83     86   65.69%      67      0
  12  K     35.000000   102.000000      3     93     82   65.69%      72      0
  13  K     35.000000   102.000000      3     87     85   65.69%      76      0
  14  K     35.000000   102.000000      3      2     83   65.69%      39      0
  15  K     35.000000   102.000000      3      1      7   65.69%      39      0
  16  K     35.000000   102.000000      3      1     13   65.69%      39      0
  17  K     35.000000   102.000000      3     96      8   65.69%      58      0
  18  K     35.000000   102.000000      3      2     91   65.69%      39      0
b           47.000000   102.000000      4                 53.92%       0      0
  19  K     47.000000   102.000000      4     93     14   53.92%      52      0
  20  K     47.000000   102.000000      4     99    150   53.92%      59      0
  21  G     47.000000   102.000000      4     39     31   53.92%      41      0
  22  G     47.000000   102.000000      4     70    110   53.92%      55      0
Heuristic search started
Heuristic search stopped
 
Cuts in the matrix         : 39
Cut elements in the matrix : 1106
 
Starting tree search.
Deterministic mode with up to 4 running threads and up to 8 tasks.
 
    Node     BestSoln    BestBound   Sols Active  Depth     Gap     GInf   Time
       1    47.000000   102.000000      4      2      1   53.92%      45      0
       2    47.000000   102.000000      4      2      2   53.92%      57      0
       3    47.000000   102.000000      4      2      3   53.92%      45      0
       4    47.000000   102.000000      4      2      4   53.92%      41      0
       5    47.000000   102.000000      4      5      3   53.92%      47      0
       6    47.000000   102.000000      4      5      2   53.92%      34      0
       7    47.000000   102.000000      4      5      3   53.92%      48      0
       8    47.000000   102.000000      4      5      4   53.92%      35      0
       9    47.000000   102.000000      4      5      5   53.92%      39      0
      10    47.000000   102.000000      4      8      4   53.92%      45      0
      20    47.000000   102.000000      4     17      6   53.92%      47      0
      32    47.000000   102.000000      4     17     15   53.92%      31      0
      46    47.000000   102.000000      4     17     19   53.92%      25      0
      58    47.000000   102.000000      4     26     17   53.92%      36      0
      70    47.000000   102.000000      4     26     15   53.92%      26      0
      89    47.000000   102.000000      4     26     23   53.92%      21      0
     105    47.000000   102.000000      4     26     19   53.92%       4      0
     215    47.000000   102.000000      4     54     11   53.92%      23      0
     318    47.000000   102.000000      4     99     18   53.92%      29      0
B&B tree size: 2.0MB total
 
    Node     BestSoln    BestBound   Sols Active  Depth     Gap     GInf   Time
*    421    48.000000   102.000000      5     99     17   52.94%       0      1
     423    48.000000   102.000000      5     99     17   52.94%      21      1
     525    48.000000   102.000000      5     99     16   52.94%      48      1
a    587    51.000000   102.000000      6     99     24   50.00%       0      1
     632    51.000000   102.000000      6     99     16   50.00%      34      1
     734    51.000000   102.000000      6    132     21   50.00%      22      1
     834    51.000000   102.000000      6    132     20   50.00%      33      1
     938    51.000000   102.000000      6    164     15   50.00%      45      1
a   1037    58.000000   102.000000      7    309     23   43.14%       0      1
    1042    58.000000   102.000000      7    309     23   43.14%      12      1
    1143    58.000000   102.000000      7    309     28   43.14%      31      1
    1251    58.000000   102.000000      7    309     29   43.14%      14      1
    1365    58.000000   102.000000      7    319     22   43.14%      33      1
    1480    58.000000   102.000000      7    319     22   43.14%      35      1
    1583    58.000000   102.000000      7    343     20   43.14%      33      1
    1691    58.000000   102.000000      7    417     14   43.14%      34      1
    1807    58.000000   100.803028      7    493     22   42.46%      16      2
    1910    58.000000   100.803028      7    493     14   42.46%      48      2
    2011    58.000000   100.803028      7    493     19   42.46%      48      2
    2122    58.000000   100.803028      7    493     23   42.46%      38      2
B&B tree size: 5.6MB total
 
    Node     BestSoln    BestBound   Sols Active  Depth     Gap     GInf   Time
    2228    58.000000   100.803028      7    526     16   42.46%      41      2
    2334    58.000000   100.803028      7    526     13   42.46%      28      2
    2455    58.000000   100.803028      7    526     22   42.46%      30      2
    2580    58.000000   100.803028      7    526     27   42.46%      18      2
    2694    58.000000   100.803028      7    526     21   42.46%      31      2
a   2784    59.000000   100.803028      8    598     26   41.47%       0      2
    2809    59.000000   100.803028      8    598     15   41.47%      25      2
    2917    59.000000   100.803028      8    598     15   41.47%      41      2
    3018    59.000000   100.803028      8    670     24   41.47%      21      2
    3121    59.000000   100.803028      8    761     18   41.47%      22      3
    3222    59.000000   100.803028      8    761     21   41.47%      48      3
    3336    59.000000   100.803028      8    761     19   41.47%      32      3
    3443    59.000000   100.803028      8    897     22   41.47%      25      3
    3555    59.000000   100.803028      8    897     23   41.47%      41      3
    3656    59.000000   100.803028      8    902     16   41.47%      24      3
    3772    59.000000   100.803028      8    902     25   41.47%      20      3
    3891    59.000000   100.803028      8    964     23   41.47%      30      3
    3996    59.000000   100.803028      8    964     12   41.47%      59      3
    4100    59.000000   100.803028      8    960     16   41.47%      18      3
    4211    59.000000   100.803028      8    960     16   41.47%      48      3
B&B tree size: 10MB total
 
    Node     BestSoln    BestBound   Sols Active  Depth     Gap     GInf   Time
    4312    59.000000   100.803028      8    960     25   41.47%      19      3
    4423    59.000000   100.803028      8    960     17   41.47%      59      3
    4523    59.000000   100.803028      8    960     16   41.47%      15      4
a   4605    60.000000   100.803028      9    960     29   40.48%       0      4
    4626    60.000000   100.803028      9    960     24   40.48%      11      4
    4739    60.000000   100.803028      9    960     16   40.48%      37      4
    4849    60.000000   100.803028      9    960     16   40.48%      37      4
    4955    60.000000   100.803028      9    960     22   40.48%      18      4
    5062    60.000000    97.599415      9   1056     27   38.52%      10      4
    5169    60.000000    97.599415      9   1056     14   38.52%      50      4
    5273    60.000000    97.599415      9   1056     23   38.52%      30      4
    5375    60.000000    97.599415      9   1123     15   38.52%      25      4
    5489    60.000000    97.599415      9   1123     21   38.52%      38      4
    5593    60.000000    97.599415      9   1123     21   38.52%      33      4
    5696    60.000000    97.599415      9   1154     20   38.52%      37      4
    5802    60.000000    97.599415      9   1190     16   38.52%      39      4
    5905    60.000000    97.599415      9   1286     18   38.52%      46      4
    6017    60.000000    97.599415      9   1286     17   38.52%      54      5
    6123    60.000000    97.599415      9   1522     15   38.52%      23      5
    6230    60.000000    97.599415      9   1522     16   38.52%      20      5
B&B tree size: 14MB total
 
    Node     BestSoln    BestBound   Sols Active  Depth     Gap     GInf   Time
    6331    60.000000    97.599415      9   1522     18   38.52%      32      5
    6434    60.000000    95.012378      9   1722     14   36.85%      42      5
    6536    60.000000    95.012378      9   1722     20   36.85%      44      5
    6643    60.000000    95.012378      9   1722     22   36.85%      31      5
    6762    60.000000    95.012378      9   1716     23   36.85%      17      5
    6878    60.000000    90.168724      9   1761     25   33.46%      28      5
    6999    60.000000    90.168724      9   1761     19   33.46%      37      5
    7101    60.000000    90.168724      9   1761     20   33.46%      45      5
    7219    60.000000    90.168724      9   1807     23   33.46%      17      6
    7323    60.000000    90.168724      9   1807     15   33.46%      30      6
    7424    60.000000    90.168724      9   1807     17   33.46%      24      6
    7539    60.000000    90.168724      9   1807     20   33.46%      40      6
    7644    60.000000    90.168724      9   1878     20   33.46%      38      6
    7754    60.000000    90.168724      9   1878     23   33.46%      22      6
    7856    60.000000    90.168724      9   1934     25   33.46%      23      6
    7961    60.000000    90.168724      9   1934     25   33.46%      36      6
    8068    60.000000    90.168724      9   1934     20   33.46%      17      6
    8171    60.000000    86.720497      9   1989     23   30.81%      34      6
    8275    60.000000    86.720497      9   1989     18   30.81%      37      6
    8390    60.000000    86.437535      9   2024     19   30.59%      43      6
B&B tree size: 18MB total
 
    Node     BestSoln    BestBound   Sols Active  Depth     Gap     GInf   Time
    8508    60.000000    86.437535      9   2032     26   30.59%      27      6
    8615    60.000000    86.437535      9   2032     19   30.59%      23      7
    8715    60.000000    86.437535      9   2056     16   30.59%      41      7
    8816    60.000000    86.437535      9   2056     16   30.59%      44      7
    8918    60.000000    86.437535      9   2056     18   30.59%      45      7
    9033    60.000000    86.437535      9   2056     17   30.59%      36      7
    9134    60.000000    86.437535      9   2056     17   30.59%      36      7
    9239    60.000000    86.437535      9   2092     16   30.59%      28      7
    9350    60.000000    86.437535      9   2092     22   30.59%      19      7
    9451    60.000000    86.437535      9   2112     15   30.59%      43      7
    9560    60.000000    83.607528      9   2213     21   28.24%      39      7
    9667    60.000000    83.274980      9   2237     17   27.95%      49      7
    9790    60.000000    83.274980      9   2251     21   27.95%      25      7
    9892    60.000000    83.274980      9   2251     18   27.95%      36      7
    9995    60.000000    83.274980      9   2251     16   27.95%      31      8
   10108    60.000000    83.274980      9   2246     12   27.95%      30      8
   11108    60.000000    82.451643      9   2314     15   27.23%      21      8
   12115    60.000000    82.000000      9   2490     18   26.83%      33      9
   13124    60.000000    82.000000      9   2648     22   26.83%      39     10
   14130    60.000000    82.000000      9   2739     24   26.83%      18     10
B&B tree size: 26MB total
 
    Node     BestSoln    BestBound   Sols Active  Depth     Gap     GInf   Time
   15151    60.000000    81.013333      9   2815     23   25.94%      20     11
   16181    60.000000    78.522123      9   2855     24   23.59%      23     12
   17184    60.000000    78.522123      9   2849     17   23.59%      26     12
   18188    60.000000    77.389187      9   2888     22   22.47%      15     13
   19204    60.000000    76.979400      9   2937     24   22.06%      36     14
   20213    60.000000    76.979400      9   2965     23   22.06%      19     14
   21215    60.000000    76.741379      9   2936     14   21.82%      10     15
   22226    60.000000    75.000000      9   2914     23   20.00%      15     15
   23240    60.000000    74.000000      9   2877     21   18.92%      36     16
   24246    60.000000    74.000000      9   2840     25   18.92%      30     16
   25266    60.000000    74.000000      9   2842     16   18.92%      15     17
   26268    60.000000    74.000000      9   2814     24   18.92%      28     17
   27270    60.000000    73.087760      9   2736     19   17.91%      43     18
   28272    60.000000    72.000000      9   2642     22   16.67%      41     18
   29276    60.000000    71.000000      9   2528     23   15.49%      38     19
   30277    60.000000    71.000000      9   2384     18   15.49%      53     19
   31282    60.000000    70.000000      9   2297     25   14.29%       8     20
   32285    60.000000    69.333333      9   2131     23   13.46%      45     20
   33289    60.000000    69.000000      9   1994     19   13.04%      34     21
   34295    60.000000    68.000000      9   1814     27   11.76%      29     21
B&B tree size: 25MB total
 
    Node     BestSoln    BestBound   Sols Active  Depth     Gap     GInf   Time
   35298    60.000000    67.013415      9   1570     14   10.47%      31     22
   36302    60.000000    67.000000      9   1374     15   10.45%      15     22
   37302    60.000000    65.544704      9    980     20    8.46%      49     22
   38302    60.000000    63.822222      9    458     22    5.99%      25     23
 *** Search completed ***     Time:    23 Nodes:      39177
Number of integer feasible solutions found is 9
Best integer solution found is    60.000000
Best bound is    60.000000
Uncrunching matrix
